NAME /Users/henri/Research/solvers/instances/idol-instances/robust/collection/cbp_Subramanyam_et_al_2020/CapBud_N25_14/models/uncertain_technology_matrix/
ROWS
 N  OBJ
 L  capacity
 L  c_4575
 L  c_4576
 L  c_4577
 L  c_4578
 L  c_4579
 L  c_4580
 L  c_4581
 L  c_4582
 L  c_4583
 L  c_4584
 L  c_4585
 L  c_4586
 L  c_4587
 L  c_4588
 L  c_4589
 L  c_4590
 L  c_4591
 L  c_4592
 L  c_4593
 L  c_4594
 L  c_4595
 L  c_4596
 L  c_4597
 L  c_4598
 L  c_4599
COLUMNS
    MARKER    'MARKER'                 'INTORG'
    x_0        OBJ        9.86785
    x_0        c_4575     1
    x_0        capacity   1.97357
    x_1        OBJ        9.83518
    x_1        c_4576     1
    x_1        capacity   1.96704
    x_2        OBJ        6.89882
    x_2        c_4577     1
    x_2        capacity   1.37976
    x_3        OBJ        1.57152
    x_3        c_4578     1
    x_3        capacity   0.314304
    x_4        OBJ        5.35489
    x_4        c_4579     1
    x_4        capacity   1.07098
    x_5        OBJ        0.536561
    x_5        c_4580     1
    x_5        capacity   0.107312
    x_6        OBJ        4.36395
    x_6        c_4581     1
    x_6        capacity   0.87279
    x_7        OBJ        0.687769
    x_7        c_4582     1
    x_7        capacity   0.137554
    x_8        OBJ        3.96224
    x_8        c_4583     1
    x_8        capacity   0.792449
    x_9        OBJ        8.50236
    x_9        c_4584     1
    x_9        capacity   1.70047
    x_10       OBJ        0.391853
    x_10       c_4585     1
    x_10       capacity   0.0783707
    x_11       OBJ        7.35342
    x_11       c_4586     1
    x_11       capacity   1.47068
    x_12       OBJ        6.78644
    x_12       c_4587     1
    x_12       capacity   1.35729
    x_13       OBJ        9.60649
    x_13       c_4588     1
    x_13       capacity   1.9213
    x_14       OBJ        2.76925
    x_14       c_4589     1
    x_14       capacity   0.55385
    x_15       OBJ        4.09799
    x_15       c_4590     1
    x_15       capacity   0.819598
    x_16       OBJ        3.62316
    x_16       c_4591     1
    x_16       capacity   0.724633
    x_17       OBJ        1.67642
    x_17       c_4592     1
    x_17       capacity   0.335284
    x_18       OBJ        6.16798
    x_18       c_4593     1
    x_18       capacity   1.2336
    x_19       OBJ        8.61777
    x_19       c_4594     1
    x_19       capacity   1.72355
    x_20       OBJ        9.2967
    x_20       c_4595     1
    x_20       capacity   1.85934
    x_21       OBJ        7.11289
    x_21       c_4596     1
    x_21       capacity   1.42258
    x_22       OBJ        5.12124
    x_22       c_4597     1
    x_22       capacity   1.02425
    x_23       OBJ        7.41046
    x_23       c_4598     1
    x_23       capacity   1.48209
    x_24       OBJ        8.71044
    x_24       c_4599     1
    x_24       capacity   1.74209
    y_0        OBJ        7.89428
    y_0        c_4575     1
    y_0        capacity   1.97357
    y_1        OBJ        7.86815
    y_1        c_4576     1
    y_1        capacity   1.96704
    y_2        OBJ        5.51906
    y_2        c_4577     1
    y_2        capacity   1.37976
    y_3        OBJ        1.25721
    y_3        c_4578     1
    y_3        capacity   0.314304
    y_4        OBJ        4.28391
    y_4        c_4579     1
    y_4        capacity   1.07098
    y_5        OBJ        0.429249
    y_5        c_4580     1
    y_5        capacity   0.107312
    y_6        OBJ        3.49116
    y_6        c_4581     1
    y_6        capacity   0.87279
    y_7        OBJ        0.550215
    y_7        c_4582     1
    y_7        capacity   0.137554
    y_8        OBJ        3.1698
    y_8        c_4583     1
    y_8        capacity   0.792449
    y_9        OBJ        6.80189
    y_9        c_4584     1
    y_9        capacity   1.70047
    y_10       OBJ        0.313483
    y_10       c_4585     1
    y_10       capacity   0.0783707
    y_11       OBJ        5.88273
    y_11       c_4586     1
    y_11       capacity   1.47068
    y_12       OBJ        5.42915
    y_12       c_4587     1
    y_12       capacity   1.35729
    y_13       OBJ        7.68519
    y_13       c_4588     1
    y_13       capacity   1.9213
    y_14       OBJ        2.2154
    y_14       c_4589     1
    y_14       capacity   0.55385
    y_15       OBJ        3.27839
    y_15       c_4590     1
    y_15       capacity   0.819598
    y_16       OBJ        2.89853
    y_16       c_4591     1
    y_16       capacity   0.724633
    y_17       OBJ        1.34114
    y_17       c_4592     1
    y_17       capacity   0.335284
    y_18       OBJ        4.93439
    y_18       c_4593     1
    y_18       capacity   1.2336
    y_19       OBJ        6.89422
    y_19       c_4594     1
    y_19       capacity   1.72355
    y_20       OBJ        7.43736
    y_20       c_4595     1
    y_20       capacity   1.85934
    y_21       OBJ        5.69031
    y_21       c_4596     1
    y_21       capacity   1.42258
    y_22       OBJ        4.097
    y_22       c_4597     1
    y_22       capacity   1.02425
    y_23       OBJ        5.92837
    y_23       c_4598     1
    y_23       capacity   1.48209
    y_24       OBJ        6.96835
    y_24       c_4599     1
    y_24       capacity   1.74209
    MARKER    'MARKER'                 'INTEND'
RHS
    RHS       capacity   70.1618
    RHS       c_4575     1
    RHS       c_4576     1
    RHS       c_4577     1
    RHS       c_4578     1
    RHS       c_4579     1
    RHS       c_4580     1
    RHS       c_4581     1
    RHS       c_4582     1
    RHS       c_4583     1
    RHS       c_4584     1
    RHS       c_4585     1
    RHS       c_4586     1
    RHS       c_4587     1
    RHS       c_4588     1
    RHS       c_4589     1
    RHS       c_4590     1
    RHS       c_4591     1
    RHS       c_4592     1
    RHS       c_4593     1
    RHS       c_4594     1
    RHS       c_4595     1
    RHS       c_4596     1
    RHS       c_4597     1
    RHS       c_4598     1
    RHS       c_4599     1
BOUNDS
 LI BND       x_0        0
 UI BND       x_0        1
 LI BND       x_1        0
 UI BND       x_1        1
 LI BND       x_2        0
 UI BND       x_2        1
 LI BND       x_3        0
 UI BND       x_3        1
 LI BND       x_4        0
 UI BND       x_4        1
 LI BND       x_5        0
 UI BND       x_5        1
 LI BND       x_6        0
 UI BND       x_6        1
 LI BND       x_7        0
 UI BND       x_7        1
 LI BND       x_8        0
 UI BND       x_8        1
 LI BND       x_9        0
 UI BND       x_9        1
 LI BND       x_10       0
 UI BND       x_10       1
 LI BND       x_11       0
 UI BND       x_11       1
 LI BND       x_12       0
 UI BND       x_12       1
 LI BND       x_13       0
 UI BND       x_13       1
 LI BND       x_14       0
 UI BND       x_14       1
 LI BND       x_15       0
 UI BND       x_15       1
 LI BND       x_16       0
 UI BND       x_16       1
 LI BND       x_17       0
 UI BND       x_17       1
 LI BND       x_18       0
 UI BND       x_18       1
 LI BND       x_19       0
 UI BND       x_19       1
 LI BND       x_20       0
 UI BND       x_20       1
 LI BND       x_21       0
 UI BND       x_21       1
 LI BND       x_22       0
 UI BND       x_22       1
 LI BND       x_23       0
 UI BND       x_23       1
 LI BND       x_24       0
 UI BND       x_24       1
 LI BND       y_0        0
 UI BND       y_0        1
 LI BND       y_1        0
 UI BND       y_1        1
 LI BND       y_2        0
 UI BND       y_2        1
 LI BND       y_3        0
 UI BND       y_3        1
 LI BND       y_4        0
 UI BND       y_4        1
 LI BND       y_5        0
 UI BND       y_5        1
 LI BND       y_6        0
 UI BND       y_6        1
 LI BND       y_7        0
 UI BND       y_7        1
 LI BND       y_8        0
 UI BND       y_8        1
 LI BND       y_9        0
 UI BND       y_9        1
 LI BND       y_10       0
 UI BND       y_10       1
 LI BND       y_11       0
 UI BND       y_11       1
 LI BND       y_12       0
 UI BND       y_12       1
 LI BND       y_13       0
 UI BND       y_13       1
 LI BND       y_14       0
 UI BND       y_14       1
 LI BND       y_15       0
 UI BND       y_15       1
 LI BND       y_16       0
 UI BND       y_16       1
 LI BND       y_17       0
 UI BND       y_17       1
 LI BND       y_18       0
 UI BND       y_18       1
 LI BND       y_19       0
 UI BND       y_19       1
 LI BND       y_20       0
 UI BND       y_20       1
 LI BND       y_21       0
 UI BND       y_21       1
 LI BND       y_22       0
 UI BND       y_22       1
 LI BND       y_23       0
 UI BND       y_23       1
 LI BND       y_24       0
 UI BND       y_24       1
ENDATA
